<number of tasks>
50

<cycle time>
1000

<order strength>
0.896


<task times>
1 120
2 204
3 132
4 273
5 89
6 224
7 177
8 267
9 221
10 82
11 80
12 90
13 262
14 160
15 192
16 192
17 54
18 204
19 132
20 289
21 62
22 225
23 64
24 224
25 220
26 358
27 119
28 172
29 43
30 216
31 238
32 21
33 96
34 227
35 143
36 274
37 158
38 91
39 45
40 39
41 24
42 158
43 97
44 32
45 158
46 263
47 162
48 247
49 145
50 174

<precedence relations>
1,2
1,3
2,4
2,5
2,6
3,4
3,5
3,6
4,7
4,8
4,9
5,7
5,8
5,9
6,7
6,8
6,9
7,10
7,11
7,12
8,10
8,11
8,12
9,10
9,11
9,12
10,14
10,15
11,13
11,14
11,15
12,25
12,27
13,16
13,18
14,17
15,16
15,17
15,18
15,19
16,20
17,20
18,20
19,20
20,21
20,22
21,23
21,24
21,25
22,23
22,24
22,25
23,26
23,27
23,28
23,29
24,26
24,27
24,28
24,29
25,26
25,29
25,32
26,30
27,31
27,32
27,33
28,30
28,32
28,38
29,31
29,33
30,34
30,36
30,40
31,35
31,36
32,41
33,34
33,38
33,39
34,37
35,38
36,37
36,39
37,41
37,42
38,40
39,45
40,44
41,43
41,44
42,45
42,46
43,45
43,46
44,45
44,46
44,47
45,49
46,48
46,49
46,50
47,48
47,49

<end>
